NAME          COPTPROB
OBJSENSE
  MIN
ROWS
 N  __OBJ___
 L  C45     
 L  C117    
 L  C130    
 L  C154    
COLUMNS
    MARKER    'MARKER'                 'INTORG'
    x40       __OBJ___  146
    x40       C45       -1
    x40       C130      -1
    x140      __OBJ___  124
    x140      C117      -1
    x140      C154      -1
    x163      __OBJ___  247
    x163      C117      -1
    x163      C130      -1
    x540      __OBJ___  119
    x540      C117      -1
    x778      __OBJ___  36
    x778      C45       -1
    x778      C154      -1
    MARKER    'MARKER'                 'INTEND'
RHS
    RHS       __OBJ___  -16374
    RHS       C45       -1
    RHS       C117      -1
    RHS       C130      -1
    RHS       C154      -1
BOUNDS
 UP BOUND     x40       1
 UP BOUND     x140      1
 UP BOUND     x163      1
 UP BOUND     x540      1
 UP BOUND     x778      1
ENDATA
